55
120
96	1
95	1
94	2
93	4
92	1
89	2
88	2
86	1
85	2
84	4
83	1
81	1
80	1
79	1
77	1
76	3
75	2
74	1
73	1
72	2
71	1
67	1
66	3
64	2
63	2
61	1
60	3
57	2
54	3
53	1
52	1
51	1
49	2
47	3
46	1
45	2
44	3
43	1
40	2
39	1
38	1
37	4
36	1
35	2
34	2
33	1
32	3
31	2
30	3
29	1
28	1
27	2
26	3
25	1
24	3
